NAME : elipse
COMMENT : (Augerat et al, No of trucks: 5, Optimal value: 672)
TYPE : CVRP
DIMENSION : 33
EDGE_WEIGHT_TYPE : EUC_2D 
CAPACITY : 100
NODE_COORD_SECTION 
 1 0 0  
 2 -10.0 0.0
 3 -8.75 38729.8334621
 4 -7.5 52915.0262213
 5 -6.25 62449.979984
 6 -5.0 69282.0323028
 7 -3.75 74161.984871
 8 -2.5 77459.6669241
 9 -1.25 79372.5393319
 10 0.0 80000.0
 11 1.25 79372.5393319
 12 2.5 77459.6669241
 13 3.75 74161.984871
 14 5.0 69282.0323028
 15 6.25 62449.979984
 16 7.5 52915.0262213
 17 8.75 38729.8334621
 18 10.0 0.0
 19 8.75 -38729.8334621
 20 7.5 -52915.0262213
 21 6.25 -62449.979984
 22 5.0 -69282.0323028
 23 3.75 -74161.984871
 24 2.5 -77459.6669241
 25 1.25 -79372.5393319
 26 0.0 -80000.0
 27 -1.25 -79372.5393319
 28 -2.5 -77459.6669241
 29 -3.75 -74161.984871
 30 -5.0 -69282.0323028
 31 -6.25 -62449.979984
 32 -7.5 -52915.0262213
 33 -8.75 -38729.8334621
 DEMAND_SECTION 
1 0
2 90
3 90
4 90
5 90
6 90
7 90
8 90
9 90
10 90
11 90
12 90
13 90
14 90
15 90
16 90
17 90
18 10
19 10
20 10
21 10
22 10
23 10
24 10
25 10
26 10
27 10
28 10
29 10
30 10
31 10
32 10
33 10
DEPOT_SECTION 
 1  
 -1  
EOF 
